p cnf 386 460
-9 2 18 21 22 0
-9 2 18 21 -22 0
-9 2 18 -21 23 0
-9 2 18 -21 -23 0
-20 -13 -14 24 25 0
-20 -13 -14 24 -25 0
-20 -13 -14 -24 26 0
-20 -13 -14 -24 -26 0
15 -12 8 27 28 0
15 -12 8 27 -28 0
15 -12 8 -27 29 0
15 -12 8 -27 -29 0
2 9 8 30 31 0
2 9 8 30 -31 0
2 9 8 -30 32 0
2 9 8 -30 -32 0
11 4 -2 33 34 0
11 4 -2 33 -34 0
11 4 -2 -33 35 0
11 4 -2 -33 -35 0
9 15 -18 36 37 0
9 15 -18 36 -37 0
9 15 -18 -36 38 0
9 15 -18 -36 -38 0
8 9 13 39 40 0
8 9 13 39 -40 0
8 9 13 -39 41 0
8 9 13 -39 -41 0
15 -19 2 42 43 0
15 -19 2 42 -43 0
15 -19 2 -42 44 0
15 -19 2 -42 -44 0
3 1 17 45 46 0
3 1 17 45 -46 0
3 1 17 -45 47 0
3 1 17 -45 -47 0
19 -13 -3 48 49 0
19 -13 -3 48 -49 0
19 -13 -3 -48 50 0
19 -13 -3 -48 -50 0
16 -13 2 51 52 0
16 -13 2 51 -52 0
16 -13 2 -51 53 0
16 -13 2 -51 -53 0
-11 7 -15 54 55 0
-11 7 -15 54 -55 0
-11 7 -15 -54 56 0
-11 7 -15 -54 -56 0
12 -7 -14 57 58 0
12 -7 -14 57 -58 0
12 -7 -14 -57 59 0
12 -7 -14 -57 -59 0
-5 12 14 60 61 0
-5 12 14 60 -61 0
-5 12 14 -60 62 0
-5 12 14 -60 -62 0
-16 10 -5 63 64 0
-16 10 -5 63 -64 0
-16 10 -5 -63 65 0
-16 10 -5 -63 -65 0
9 -7 19 66 67 0
9 -7 19 66 -67 0
9 -7 19 -66 68 0
9 -7 19 -66 -68 0
10 -7 -4 69 70 0
10 -7 -4 69 -70 0
10 -7 -4 -69 71 0
10 -7 -4 -69 -71 0
-14 -19 10 72 73 0
-14 -19 10 72 -73 0
-14 -19 10 -72 74 0
-14 -19 10 -72 -74 0
-3 -5 -11 75 76 0
-3 -5 -11 75 -76 0
-3 -5 -11 -75 77 0
-3 -5 -11 -75 -77 0
3 12 4 78 79 0
3 12 4 78 -79 0
3 12 4 -78 80 0
3 12 4 -78 -80 0
5 -13 -15 81 82 0
5 -13 -15 81 -82 0
5 -13 -15 -81 83 0
5 -13 -15 -81 -83 0
-13 6 18 84 85 0
-13 6 18 84 -85 0
-13 6 18 -84 86 0
-13 6 18 -84 -86 0
13 -2 7 87 88 0
13 -2 7 87 -88 0
13 -2 7 -87 89 0
13 -2 7 -87 -89 0
-9 -2 5 90 91 0
-9 -2 5 90 -91 0
-9 -2 5 -90 92 0
-9 -2 5 -90 -92 0
13 -20 16 93 94 0
13 -20 16 93 -94 0
13 -20 16 -93 95 0
13 -20 16 -93 -95 0
11 19 14 96 97 0
11 19 14 96 -97 0
11 19 14 -96 98 0
11 19 14 -96 -98 0
-12 -7 -3 99 100 0
-12 -7 -3 99 -100 0
-12 -7 -3 -99 101 0
-12 -7 -3 -99 -101 0
-1 3 18 102 103 0
-1 3 18 102 -103 0
-1 3 18 -102 104 0
-1 3 18 -102 -104 0
-1 8 -4 105 106 0
-1 8 -4 105 -106 0
-1 8 -4 -105 107 0
-1 8 -4 -105 -107 0
17 -2 -12 108 109 0
17 -2 -12 108 -109 0
17 -2 -12 -108 110 0
17 -2 -12 -108 -110 0
-15 10 -8 111 112 0
-15 10 -8 111 -112 0
-15 10 -8 -111 113 0
-15 10 -8 -111 -113 0
7 11 -16 114 115 0
7 11 -16 114 -115 0
7 11 -16 -114 116 0
7 11 -16 -114 -116 0
6 -10 -8 117 118 0
6 -10 -8 117 -118 0
6 -10 -8 -117 119 0
6 -10 -8 -117 -119 0
5 19 -17 120 121 0
5 19 -17 120 -121 0
5 19 -17 -120 122 0
5 19 -17 -120 -122 0
19 9 -5 123 124 0
19 9 -5 123 -124 0
19 9 -5 -123 125 0
19 9 -5 -123 -125 0
17 -18 -15 126 127 0
17 -18 -15 126 -127 0
17 -18 -15 -126 128 0
17 -18 -15 -126 -128 0
-18 20 -10 129 130 0
-18 20 -10 129 -130 0
-18 20 -10 -129 131 0
-18 20 -10 -129 -131 0
-5 -10 12 132 133 0
-5 -10 12 132 -133 0
-5 -10 12 -132 134 0
-5 -10 12 -132 -134 0
19 16 -1 135 136 0
19 16 -1 135 -136 0
19 16 -1 -135 137 0
19 16 -1 -135 -137 0
20 -12 -18 138 139 0
20 -12 -18 138 -139 0
20 -12 -18 -138 140 0
20 -12 -18 -138 -140 0
19 17 12 141 142 0
19 17 12 141 -142 0
19 17 12 -141 143 0
19 17 12 -141 -143 0
-1 -9 -19 144 145 0
-1 -9 -19 144 -145 0
-1 -9 -19 -144 146 0
-1 -9 -19 -144 -146 0
19 -2 -20 147 148 0
19 -2 -20 147 -148 0
19 -2 -20 -147 149 0
19 -2 -20 -147 -149 0
-14 -15 -12 150 151 0
-14 -15 -12 150 -151 0
-14 -15 -12 -150 152 0
-14 -15 -12 -150 -152 0
8 -14 6 153 154 0
8 -14 6 153 -154 0
8 -14 6 -153 155 0
8 -14 6 -153 -155 0
-2 14 -17 156 157 0
-2 14 -17 156 -157 0
-2 14 -17 -156 158 0
-2 14 -17 -156 -158 0
-19 -3 12 159 160 0
-19 -3 12 159 -160 0
-19 -3 12 -159 161 0
-19 -3 12 -159 -161 0
13 -16 -20 162 163 0
13 -16 -20 162 -163 0
13 -16 -20 -162 164 0
13 -16 -20 -162 -164 0
-2 -3 -8 165 166 0
-2 -3 -8 165 -166 0
-2 -3 -8 -165 167 0
-2 -3 -8 -165 -167 0
11 2 20 168 169 0
11 2 20 168 -169 0
11 2 20 -168 170 0
11 2 20 -168 -170 0
-20 -8 -15 171 172 0
-20 -8 -15 171 -172 0
-20 -8 -15 -171 173 0
-20 -8 -15 -171 -173 0
14 17 -20 174 175 0
14 17 -20 174 -175 0
14 17 -20 -174 176 0
14 17 -20 -174 -176 0
-15 19 13 177 178 0
-15 19 13 177 -178 0
-15 19 13 -177 179 0
-15 19 13 -177 -179 0
7 9 14 180 181 0
7 9 14 180 -181 0
7 9 14 -180 182 0
7 9 14 -180 -182 0
16 -5 8 183 184 0
16 -5 8 183 -184 0
16 -5 8 -183 185 0
16 -5 8 -183 -185 0
-1 -19 4 186 187 0
-1 -19 4 186 -187 0
-1 -19 4 -186 188 0
-1 -19 4 -186 -188 0
-11 -13 -1 189 190 0
-11 -13 -1 189 -190 0
-11 -13 -1 -189 191 0
-11 -13 -1 -189 -191 0
10 19 -9 192 193 0
10 19 -9 192 -193 0
10 19 -9 -192 194 0
10 19 -9 -192 -194 0
9 -14 18 195 196 0
9 -14 18 195 -196 0
9 -14 18 -195 197 0
9 -14 18 -195 -197 0
-11 -14 -5 198 199 0
-11 -14 -5 198 -199 0
-11 -14 -5 -198 200 0
-11 -14 -5 -198 -200 0
-8 -16 -15 201 202 0
-8 -16 -15 201 -202 0
-8 -16 -15 -201 203 0
-8 -16 -15 -201 -203 0
12 4 19 204 205 0
12 4 19 204 -205 0
12 4 19 -204 206 0
12 4 19 -204 -206 0
2 17 -11 207 208 0
2 17 -11 207 -208 0
2 17 -11 -207 209 0
2 17 -11 -207 -209 0
-1 6 -2 210 211 0
-1 6 -2 210 -211 0
-1 6 -2 -210 212 0
-1 6 -2 -210 -212 0
13 -11 7 213 214 0
13 -11 7 213 -214 0
13 -11 7 -213 215 0
13 -11 7 -213 -215 0
-1 -9 -15 216 217 0
-1 -9 -15 216 -217 0
-1 -9 -15 -216 218 0
-1 -9 -15 -216 -218 0
-16 -12 17 219 220 0
-16 -12 17 219 -220 0
-16 -12 17 -219 221 0
-16 -12 17 -219 -221 0
20 15 -14 222 223 0
20 15 -14 222 -223 0
20 15 -14 -222 224 0
20 15 -14 -222 -224 0
7 -9 15 225 226 0
7 -9 15 225 -226 0
7 -9 15 -225 227 0
7 -9 15 -225 -227 0
17 -6 -18 228 229 0
17 -6 -18 228 -229 0
17 -6 -18 -228 230 0
17 -6 -18 -228 -230 0
6 14 4 231 232 0
6 14 4 231 -232 0
6 14 4 -231 233 0
6 14 4 -231 -233 0
-19 -20 -15 234 235 0
-19 -20 -15 234 -235 0
-19 -20 -15 -234 236 0
-19 -20 -15 -234 -236 0
-19 18 -9 237 238 0
-19 18 -9 237 -238 0
-19 18 -9 -237 239 0
-19 18 -9 -237 -239 0
-6 -10 -20 240 241 0
-6 -10 -20 240 -241 0
-6 -10 -20 -240 242 0
-6 -10 -20 -240 -242 0
6 -12 -1 243 244 0
6 -12 -1 243 -244 0
6 -12 -1 -243 245 0
6 -12 -1 -243 -245 0
19 2 -6 246 247 0
19 2 -6 246 -247 0
19 2 -6 -246 248 0
19 2 -6 -246 -248 0
7 -1 11 249 250 0
7 -1 11 249 -250 0
7 -1 11 -249 251 0
7 -1 11 -249 -251 0
15 14 6 252 253 0
15 14 6 252 -253 0
15 14 6 -252 254 0
15 14 6 -252 -254 0
-15 -12 -20 255 256 0
-15 -12 -20 255 -256 0
-15 -12 -20 -255 257 0
-15 -12 -20 -255 -257 0
9 -17 6 258 259 0
9 -17 6 258 -259 0
9 -17 6 -258 260 0
9 -17 6 -258 -260 0
3 18 -9 261 262 0
3 18 -9 261 -262 0
3 18 -9 -261 263 0
3 18 -9 -261 -263 0
7 -5 -10 264 265 0
7 -5 -10 264 -265 0
7 -5 -10 -264 266 0
7 -5 -10 -264 -266 0
2 -14 -3 267 268 0
2 -14 -3 267 -268 0
2 -14 -3 -267 269 0
2 -14 -3 -267 -269 0
-20 11 12 270 271 0
-20 11 12 270 -271 0
-20 11 12 -270 272 0
-20 11 12 -270 -272 0
-3 -18 -12 273 274 0
-3 -18 -12 273 -274 0
-3 -18 -12 -273 275 0
-3 -18 -12 -273 -275 0
-15 -16 3 276 277 0
-15 -16 3 276 -277 0
-15 -16 3 -276 278 0
-15 -16 3 -276 -278 0
2 4 11 279 280 0
2 4 11 279 -280 0
2 4 11 -279 281 0
2 4 11 -279 -281 0
-10 -17 12 282 283 0
-10 -17 12 282 -283 0
-10 -17 12 -282 284 0
-10 -17 12 -282 -284 0
15 6 -9 285 286 0
15 6 -9 285 -286 0
15 6 -9 -285 287 0
15 6 -9 -285 -287 0
5 12 -4 288 289 0
5 12 -4 288 -289 0
5 12 -4 -288 290 0
5 12 -4 -288 -290 0
-18 -20 1 291 292 0
-18 -20 1 291 -292 0
-18 -20 1 -291 293 0
-18 -20 1 -291 -293 0
294 295 297 301 309 0
294 295 297 301 -309 0
294 295 297 -301 310 0
294 295 297 -301 -310 0
294 295 -297 302 311 0
294 295 -297 302 -311 0
294 295 -297 -302 312 0
294 295 -297 -302 -312 0
294 -295 298 303 313 0
294 -295 298 303 -313 0
294 -295 298 -303 314 0
294 -295 298 -303 -314 0
294 -295 -298 304 315 0
294 -295 -298 304 -315 0
294 -295 -298 -304 316 0
294 -295 -298 -304 -316 0
-294 296 299 305 317 0
-294 296 299 305 -317 0
-294 296 299 -305 318 0
-294 296 299 -305 -318 0
-294 296 -299 306 319 0
-294 296 -299 306 -319 0
-294 296 -299 -306 320 0
-294 296 -299 -306 -320 0
-294 -296 300 307 321 0
-294 -296 300 307 -321 0
-294 -296 300 -307 322 0
-294 -296 300 -307 -322 0
-294 -296 -300 308 323 0
-294 -296 -300 308 -323 0
-294 -296 -300 -308 324 0
-294 -296 -300 -308 -324 0
325 326 328 332 340 0
325 326 328 332 -340 0
325 326 328 -332 341 0
325 326 328 -332 -341 0
325 326 -328 333 342 0
325 326 -328 333 -342 0
325 326 -328 -333 343 0
325 326 -328 -333 -343 0
325 -326 329 334 344 0
325 -326 329 334 -344 0
325 -326 329 -334 345 0
325 -326 329 -334 -345 0
325 -326 -329 335 346 0
325 -326 -329 335 -346 0
325 -326 -329 -335 347 0
325 -326 -329 -335 -347 0
-325 327 330 336 348 0
-325 327 330 336 -348 0
-325 327 330 -336 349 0
-325 327 330 -336 -349 0
-325 327 -330 337 350 0
-325 327 -330 337 -350 0
-325 327 -330 -337 351 0
-325 327 -330 -337 -351 0
-325 -327 331 338 352 0
-325 -327 331 338 -352 0
-325 -327 331 -338 353 0
-325 -327 331 -338 -353 0
-325 -327 -331 339 354 0
-325 -327 -331 339 -354 0
-325 -327 -331 -339 355 0
-325 -327 -331 -339 -355 0
356 357 359 363 371 0
356 357 359 363 -371 0
356 357 359 -363 372 0
356 357 359 -363 -372 0
356 357 -359 364 373 0
356 357 -359 364 -373 0
356 357 -359 -364 374 0
356 357 -359 -364 -374 0
356 -357 360 365 375 0
356 -357 360 365 -375 0
356 -357 360 -365 376 0
356 -357 360 -365 -376 0
356 -357 -360 366 377 0
356 -357 -360 366 -377 0
356 -357 -360 -366 378 0
356 -357 -360 -366 -378 0
-356 358 361 367 379 0
-356 358 361 367 -379 0
-356 358 361 -367 380 0
-356 358 361 -367 -380 0
-356 358 -361 368 381 0
-356 358 -361 368 -381 0
-356 358 -361 -368 382 0
-356 358 -361 -368 -382 0
-356 -358 362 369 383 0
-356 -358 362 369 -383 0
-356 -358 362 -369 384 0
-356 -358 362 -369 -384 0
-356 -358 -362 370 385 0
-356 -358 -362 370 -385 0
-356 -358 -362 -370 386 0
-356 -358 -362 -370 -386 0

